
Gurobi 10.0.3 (linux64, gurobi_cl) logging started Fri Nov 10 23:16:53 2023

Set parameter Username
Set parameter TimeLimit to value 3600
Set parameter LogFile to value "RCPSP_1867.log"
Set parameter Threads to value 32
Academic license - for non-commercial use only - expires 2024-10-30
Using license file /home/jrivera6/gurobi-licenses/v1003/compute-0-34/gurobi.lic

Gurobi Optimizer version 10.0.3 build v10.0.3rc0 (linux64)
Copyright (c) 2023, Gurobi Optimization, LLC

Read MPS format model from file RCPSP_1867.mps
Reading time = 0.15 seconds
RCPSP_1867: 75288 rows, 29890 columns, 237062 nonzeros

CPU model: Intel(R) Xeon(R) Gold 6130 CPU @ 2.10GHz, instruction set [SSE2|AVX|AVX2|AVX512]
Thread count: 32 physical cores, 32 logical processors, using up to 32 threads

Optimize a model with 75288 rows, 29890 columns and 237062 nonzeros
Model fingerprint: 0x1a5bb639
Variable types: 122 continuous, 29768 integer (29768 binary)
Coefficient statistics:
  Matrix range     [1e+00, 7e+02]
  Objective range  [1e+00, 1e+00]
  Bounds range     [1e+00, 1e+00]
  RHS range        [1e+00, 7e+02]
Presolve removed 12105 rows and 2006 columns (presolve time = 5s) ...
Presolve removed 12105 rows and 2006 columns (presolve time = 10s) ...
Presolve removed 16173 rows and 3468 columns
Presolve time: 13.37s
Presolved: 59115 rows, 26422 columns, 194428 nonzeros
Variable types: 121 continuous, 26301 integer (26301 binary)

Deterministic concurrent LP optimizer: primal and dual simplex (primal and dual model)
Showing first log only...

Root relaxation presolved: 59115 rows, 26422 columns, 194428 nonzeros


Root simplex log...

Iteration    Objective       Primal Inf.    Dual Inf.      Time
       0    1.1768265e+02   2.189609e-02   2.853174e+08     15s
     141    1.1778882e+02   3.760809e-01   2.471923e+08     15s
    2941    1.1700000e+02   0.000000e+00   0.000000e+00     16s
Concurrent spin time: 0.75s

Solved with dual simplex (primal model)

Root relaxation: objective 1.170000e+02, 8820 iterations, 2.43 seconds (0.28 work units)
Total elapsed time = 21.15s

    Nodes    |    Current Node    |     Objective Bounds      |     Work
 Expl Unexpl |  Obj  Depth IntInf | Incumbent    BestBd   Gap | It/Node Time

     0     0  117.00000    0  303          -  117.00000      -     -   23s
     0     0  121.00000    0  999          -  121.00000      -     -   59s
     0     0  121.00000    0  775          -  121.00000      -     -   60s
     0     0  121.00000    0  742          -  121.00000      -     -   60s
     0     0  121.00000    0  746          -  121.00000      -     -   64s
     0     0  121.00000    0 1112          -  121.00000      -     -   82s
     0     0  121.00000    0  901          -  121.00000      -     -   85s
     0     0  121.00000    0  937          -  121.00000      -     -   88s
     0     0  121.00000    0  916          -  121.00000      -     -   91s
     0     0  121.00000    0  911          -  121.00000      -     -   91s
     0     0  121.00000    0 1065          -  121.00000      -     -  103s
     0     0  121.00000    0  877          -  121.00000      -     -  104s
     0     0  121.00000    0  869          -  121.00000      -     -  106s
     0     0  121.00000    0  273          -  121.00000      -     -  129s
     0     0  121.00000    0  471          -  121.00000      -     -  141s
     0     0  121.00000    0  465          -  121.00000      -     -  141s
     0     0  121.00000    0  296          -  121.00000      -     -  149s
     0     0  121.00000    0  555          -  121.00000      -     -  155s
     0     0  121.00000    0  373          -  121.00000      -     -  164s
     0     0  121.00000    0  842          -  121.00000      -     -  210s
     0     0  121.00000    0  978          -  121.00000      -     -  211s
     0     0  121.00000    0  972          -  121.00000      -     -  212s
     0     0  121.00000    0  251          -  121.00000      -     -  219s
     0     0  121.00000    0  655          -  121.00000      -     -  221s
     0     0  121.00000    0  173          -  121.00000      -     -  227s
     0     0  121.00000    0  500          -  121.00000      -     -  229s
     0     0  121.00000    0  498          -  121.00000      -     -  229s
     0     0  121.00000    0  259          -  121.00000      -     -  237s
     0     0  121.00000    0  232          -  121.00000      -     -  237s
     0     0  121.00000    0  114          -  121.00000      -     -  244s
     0     2  121.00000    0  114          -  121.00000      -     -  277s
     1     4  121.00000    1  118          -  121.00000      -  2375  297s
     3     7  121.00000    2  187          -  121.00000      -  1105  306s
     7    11  121.00000    3  189          -  121.00000      -   578  340s
    14    18  121.00000    4  188          -  121.00000      -   480  352s
    25    28  121.00000    5  209          -  121.00000      -   387  366s
    43    46  121.00000    6  204          -  121.00000      -   342  376s
    71    71  121.00000    7  731          -  121.00000      -   269  422s
   103    96  121.00000    8  644          -  121.00000      -   469  452s
   135   118  121.00000    9  638          -  121.00000      -   479  464s
   167   149  121.00000   10  122          -  121.00000      -   447  502s
   208   183  121.00000   11  107          -  121.00000      -   438  513s
   249   218  121.00000   12  227          -  121.00000      -   374  523s
   291   256  121.00000   12  107          -  121.00000      -   323  532s
   333   300  121.00000   13  114          -  121.00000      -   286  548s
   379   344  121.00000   14  161          -  121.00000      -   257  561s
   429   391  121.00000   15  147          -  121.00000      -   228  573s
   482   438  121.00000   17  147          -  121.00000      -   206  599s
   532   486  121.00000   19  153          -  121.00000      -   198  612s
   581   535  121.00000   21  152          -  121.00000      -   185  623s
   632   592  121.00000   23  153          -  121.00000      -   173  638s
   690   655  121.00064   25  208          -  121.00000      -   162  651s
   755   710  121.00000   25  156          -  121.00000      -   151  660s
   816   771  121.00000   26  156          -  121.00000      -   141  671s
   884   834  121.00000   29  151          -  121.00000      -   133  688s
   950   898  121.00000   31  151          -  121.00000      -   126  703s
  1016   949  121.00000   33  272          -  121.00000      -   125  718s
  1076  1014  121.00000   33  222          -  121.00000      -   130  729s
  1149  1084  121.00000   36  222          -  121.00000      -   129  741s
  1231  1171  121.00000   37  226          -  121.00000      -   125  758s
  1322  1272  121.00000   41  226          -  121.00000      -   120  770s
  1430  1388  121.00006   44  393          -  121.00000      -   113  792s
  1562  1537  121.00000   44  221          -  121.00000      -   106  805s
  1723  1755  121.00000   47  193          -  121.00000      -  98.8  821s
  1949  2114  121.00000   52  187          -  121.00000      -  90.5  837s
  2323  2478  121.00000   56  204          -  121.00000      -  80.0  855s
  2717  2688  121.00000   59  315          -  121.00000      -  73.0  894s
  2948  2973  121.00000   61  305          -  121.00000      -  77.8  938s
  3241  3259  121.00000   71  115          -  121.00000      -  79.9  982s
  3541  3653  121.00000   74  156          -  121.00000      -  78.9 1019s
  3975  4066  121.00000   88  142          -  121.00000      -  76.7 1074s
  4434  4705  121.00000   93  176          -  121.00000      -  75.0 1105s
  5144  5434  121.01967  108  335          -  121.00000      -  72.6 1153s
  5976  6325  123.00000  138  312          -  121.00000      -  70.1 1201s
  6977  7179  123.00000  176  341          -  121.00000      -  69.4 1245s
  7981  7748  123.00000  219  336          -  121.00000      -  69.1 1327s
H 8533  6773                     139.0000000  121.00000  12.9%  68.6 1327s
  8635  6997  125.00000  235  309  139.00000  121.00000  12.9%  68.5 1416s
H 8664  6370                     136.0000000  121.00000  11.0%  68.6 1416s
  9195  6790  130.00000   62  470  136.00000  121.00000  11.0%  68.4 1746s
H 9219  6270                     135.0000000  121.00000  10.4%  68.5 1746s
H 9253  5475                     133.0000000  121.00000  9.02%  69.4 1746s
H 9328  5413                     132.0000000  121.00000  8.33%  69.5 1746s
H 9378  5022                     130.0000000  121.00000  6.92%  69.7 1746s
  9840  4909  129.00000   58  114  130.00000  121.00000  6.92%  72.5 1840s
  9842  4910  126.00000  264   77  130.00000  121.00000  6.92%  72.4 1850s
  9843  4911  127.00000  184  449  130.00000  121.00000  6.92%  72.4 1857s
H 9843  4665                     129.0000000  121.00000  6.20%  72.4 1860s
  9845  4666  128.00000  199  169  129.00000  121.00000  6.20%  72.4 1878s
  9846  4667  125.00000  163  373  129.00000  121.00000  6.20%  72.4 1883s
H 9846  4433                     128.0000000  121.00000  5.47%  72.4 1889s
  9847  4434  127.00000   54   75  128.00000  121.00000  5.47%  72.4 1894s
  9848  4434  127.00000  213   70  128.00000  121.00000  5.47%  72.4 1899s
  9849  4435  128.00000  143  331  128.00000  121.00000  5.47%  72.4 1904s
  9850  4436  123.00000   81   47  128.00000  121.00000  5.47%  72.4 1918s
  9851  4436  122.00000  115  267  128.00000  121.00000  5.47%  72.4 1923s
  9852  4437  127.46154  109   50  128.00000  121.00000  5.47%  72.4 1932s
  9853  4438  127.00575  158  171  128.00000  121.00000  5.47%  72.4 1938s
H 9853  4216                     127.0000000  121.00000  4.72%  72.4 1952s
  9854  4216  124.51825  121   51  127.00000  121.00000  4.72%  72.3 1955s
  9855  4217  122.00000  148  325  127.00000  121.00000  4.72%  72.3 1962s
H 9855  4006                     126.0000000  121.00000  3.97%  72.3 1971s
  9856  4007  121.00000   93   51  126.00000  121.00000  3.97%  72.3 1975s
H 9856  3807                     125.0000000  121.00000  3.20%  72.3 1977s
  9857  3807  121.09836   83   72  125.00000  121.00000  3.20%  72.3 1980s
  9858  3808  125.00000   16   92  125.00000  121.00000  3.20%  72.3 1991s
  9859  3809  122.00000  125  370  125.00000  121.00000  3.20%  72.3 1997s
  9860  3809  125.00000   44  286  125.00000  121.00000  3.20%  72.3 2009s
  9861  3810  125.00000  116  461  125.00000  121.00000  3.20%  72.3 2017s
  9862  3811  125.00000   97  122  125.00000  121.00000  3.20%  72.3 2026s
  9864  3812  125.00000   28  122  125.00000  121.00000  3.20%  72.3 2032s
  9865  3814  124.00000   82  114  125.00000  121.00000  3.20%  82.5 2066s
  9867  3815  125.00000   12   97  125.00000  121.00000  3.20%  82.5 2075s
  9868  3816  125.00000  151   20  125.00000  121.00000  3.20%  82.5 2084s
  9869  3817  125.00000  248  116  125.00000  121.00000  3.20%  82.5 2085s
  9870  3817  125.00000   66   30  125.00000  121.00000  3.20%  82.5 2090s
  9872  3819  125.00000   80   62  125.00000  121.00000  3.20%  82.5 2097s
  9874  3820  125.00000   35   14  125.00000  121.00000  3.20%  82.4 2107s
  9876  3821  125.00000  152  124  125.00000  121.00163  3.20%  82.4 2113s
  9877  3822  123.00000  180  319  125.00000  121.00458  3.20%  82.4 2116s
  9878  3823  125.00000   65  156  125.00000  121.04538  3.16%  82.4 2122s
  9880  3824  125.00000  218  149  125.00000  121.05413  3.16%  82.4 2129s
  9881  3825  125.00000  198  408  125.00000  121.05420  3.16%  82.4 2132s
  9882  3825  122.00000   81  119  125.00000  121.05671  3.15%  82.4 2139s
  9883  3826  125.00000  118  306  125.00000  121.05671  3.15%  82.4 2144s
  9884  3827  125.00000  173  189  125.00000  121.05671  3.15%  82.4 2154s
  9885  3827  123.00000   91  841  125.00000  121.05671  3.15%  82.3 2160s
  9886  3828  125.00000  208  155  125.00000  121.05671  3.15%  82.3 2169s
  9887  3829  125.00000   64  567  125.00000  121.05677  3.15%  82.3 2174s
  9888  3829  123.00000  150  172  125.00000  121.05677  3.15%  82.3 2184s
  9889  3830  122.00000   84  242  125.00000  121.05678  3.15%  82.3 2189s
  9890  3831  125.00000   98  171  125.00000  121.05678  3.15%  82.3 2196s
  9892  3832  125.00000  181  175  125.00000  121.05678  3.15%  82.3 2205s
  9895  3835  125.00000   61  114  125.00000  121.05678  3.15%  90.8 2228s
  9897  3836  125.00000  132  132  125.00000  121.05678  3.15%  90.8 2246s
  9898  3837  125.00000   19  144  125.00000  121.05678  3.15%  90.8 2256s
  9900  3838  125.00000  169  142  125.00000  121.05678  3.15%  90.7 2263s
  9901  3839  122.00213   78  305  125.00000  121.05679  3.15%  90.7 2266s
  9902  3840  125.00000   35  188  125.00000  121.05679  3.15%  90.7 2271s
  9903  3840  125.00000  181  643  125.00000  121.05679  3.15%  90.7 2275s
  9904  3841  124.00000   50  154  125.00000  121.05679  3.15%  90.7 2280s
  9906  3842  125.00000   59  397  125.00000  121.05679  3.15%  90.7 2290s
  9908  3844  125.00000  156  205  125.00000  121.05679  3.15%  90.7 2305s
  9910  3845  125.00000   39  166  125.00000  121.05679  3.15%  90.6 2315s
  9911  3846  122.00000  106  131  125.00000  121.05679  3.15%  90.6 2320s
  9912  3846  125.00000   95  465  125.00000  121.05679  3.15%  90.6 2325s
  9913  3847  125.00000   37  249  125.00000  121.05679  3.15%  90.6 2333s
  9914  3848  122.00000  105  404  125.00000  121.05679  3.15%  90.6 2338s
  9915  3848  121.05679   93  202  125.00000  121.05679  3.15%  90.6 2347s
  9916  3849  122.00000   72  415  125.00000  121.05679  3.15%  90.6 2351s
  9917  3850  121.05679   67  269  125.00000  121.05679  3.15%  90.6 2358s
  9918  3850  125.00000  167  193  125.00000  121.05679  3.15%  90.6 2362s
  9920  3855  121.99086   43  535  125.00000  121.05831  3.15%  99.3 2389s
  9922  3857  121.99086   44  484  125.00000  121.06229  3.15%  99.3 2412s
  9926  3858  121.99086   45  481  125.00000  121.08380  3.13%  99.3 2446s
  9933  3862  121.99086   46  472  125.00000  121.12391  3.10%  99.4 2460s
  9942  3869  121.99086   47  471  125.00000  121.99086  2.41%  99.4 2495s
  9958  3875  121.99086   48  597  125.00000  121.99086  2.41%   100 2529s
  9984  3890  121.99086   49  586  125.00000  121.99086  2.41%   100 2561s
 10016  3906  121.99086   50  582  125.00000  121.99086  2.41%   100 2625s
H10019  3712                     124.0000000  121.99086  1.62%   100 2625s
 10048  3697     cutoff   50       124.00000  121.99086  1.62%   100 2649s
 10080  3680  121.99086   51  583  124.00000  121.99086  1.62%   100 2687s
 10125  3686  123.00000   51  475  124.00000  121.99086  1.62%   100 2707s
 10163  3699  122.00000   52  541  124.00000  121.99086  1.62%   100 2729s
 10202  3716  123.00000   52  486  124.00000  121.99086  1.62%   100 2754s
 10240  3766  122.00000   53  541  124.00000  121.99086  1.62%   100 2760s
 10331  3796  122.00000   55  537  124.00000  121.99086  1.62%   100 2765s
 10416  3790  122.00000   56  537  124.00000  121.99086  1.62%  99.3 2797s
 10451  3835  122.00000   56  535  124.00000  121.99086  1.62%   100 2811s
 10542  3869     cutoff   57       124.00000  121.99086  1.62%  99.4 2816s
 10645  3845  122.00000   60  598  124.00000  121.99086  1.62%  98.9 2882s
 10706  3990  123.00000   60  544  124.00000  121.99086  1.62%  99.1 2900s
 10931  3947  123.00000   64  576  124.00000  121.99086  1.62%  97.6 2925s
 11041  4168  122.00000   65  560  124.00000  121.99086  1.62%  97.3 2964s
 11384  4084  122.00000   69  684  124.00000  121.99086  1.62%  95.1 3077s
 11468  4312  122.00000   70  682  124.00000  121.99086  1.62%  95.4 3115s
 11843  4534  123.00000   76  720  124.00000  121.99086  1.62%  93.3 3160s
 12382  4371  122.00000   83  608  124.00000  121.99086  1.62%  90.3 3216s
 12522  4787  122.00000   84  648  124.00000  121.99086  1.62%  90.6 3264s
 13142  4672  122.00000   91  620  124.00000  121.99086  1.62%  87.6 3314s
 13373  5608  122.00000   92  620  124.00000  121.99086  1.62%  88.0 3555s
 14796  6160  122.00000  101  633  124.00000  121.99086  1.62%  82.1 3681s

Cutting planes:
  Learned: 9
  Gomory: 12
  Cover: 371
  Implied bound: 28
  Projected implied bound: 9
  Clique: 765
  MIR: 87
  StrongCG: 28
  Flow cover: 235
  GUB cover: 5
  Zero half: 10
  RLT: 96
  Relax-and-lift: 93

Explored 16265 nodes (1366891 simplex iterations) in 3714.16 seconds (233.32 work units)
Thread count was 32 (of 32 available processors)

Solution count 10: 124 125 126 ... 135

Time limit reached
Best objective 1.240000000000e+02, best bound 1.219908552003e+02, gap 1.6203%

Wrote result file 'RCPSP_1867.sol'

